&GLOBAL
  PROJECT propHBr_pm6_A
  RUN_TYPE MD
  PRINT_LEVEL SILENT
&END GLOBAL

!&EXT_RESTART
!RESTART_FILE_NAME Aldol_pm6_R-1.restart
!&END

&MOTION
  &MD
    ENSEMBLE NVT
    STEPS 1000000
    TIMESTEP 0.5
    TEMPERATURE 300
   &THERMOSTAT
        &CSVR
        TIMECON 100
        &END
   &END THERMOSTAT
  &END MD
  &PRINT
     &VELOCITIES OFF
     &END
     &FORCES
      &EACH
         MD 4000
      &END
     &END
     &TRAJECTORY
      &EACH
         MD 20
      &END
     &END
     &RESTART
      &EACH
          MD 1000
      &END
     &END
     &RESTART_HISTORY
       &EACH
          MD 50000
       &END
     &END
  &END PRINT

 &FREE_ENERGY
    &METADYN
      USE_PLUMED .TRUE.
      PLUMED_INPUT_FILE plumed.dat
    &END METADYN
  &END FREE_ENERGY

&END MOTION

&FORCE_EVAL
  METHOD Quickstep
  &DFT
    &QS
      METHOD PM6
    &END QS
    &SCF
    SCF_GUESS ATOMIC
 #   SCF_GUESS RESTART
    &END SCF
  &END DFT
  &SUBSYS
    &CELL
      ABC 15.0 15.0 15.0
      PERIODIC NONE
    &END CELL
    &COORD
  C          0.0000000000      0.0000000000      0.0000000000                 
  C          0.3239981051      1.0291183648     -1.0808369557                 
  H          0.9372308633     -0.4026072360      0.4400859735                 
  H         -0.6072103168      0.4666645362      0.8047917711                 
  C          1.1178979283      2.1993726082     -0.5081514717                 
  H          0.9206097431      0.5453369022     -1.8842470118                 
  H          0.5326697485      2.7115715755      0.2851452302                 
  H          1.3384443134      2.9297105242     -1.3149415280                 
  H          2.0784690752      1.8415348990     -0.0798820267                 
  Br        -1.0070015909     -1.4702220105     -0.7601535094                 
  H         -0.6219504861      1.4135503941     -1.5199849427   
    &END COORD
  &END SUBSYS
&END FORCE_EVAL

